Route #1: 606 616 377 386 788 655 254 625 729
Route #2: 673 703 313 262 185 699 500 632
Route #3: 110 927 796 51 516 610 247 866
Route #4: 854 68 819 281 800 634 53 82 173 61
Route #5: 14 650 767 114 87 658 112 613 105 267
Route #6: 487 802 695 372 202 621 537 297 541
Route #7: 486 201 706 320 559 743 970 877
Route #8: 21 986 485 967 741 540 713 283 142 712
Route #9: 911 141 74 278 407 751 790 527
Route #10: 697 704 35 607 630 384 501 253
Route #11: 775 299 235 455 461 721 898 753 687 478
Route #12: 26 117 489 770 302 762 423 915 664 264 718
Route #13: 726 213 932 122 148 547 586 532
Cost: 253970
